
  32    4
  10   10   10   10

   0   0   0   0   0   1 2 
   5  10  10  10  10   1 3 
   2  10  10  10  10   1 4 
   4  10  10  10  10   1 5 
   1  10  10  10  10   1 6 
   3  10  10  10  10   2 12 7 
   2  10  10  10  10   1 8 
   6  10  10  10  10   1 9 
   4  10  10  10  10   2 15 10 
  10  10  10  10  10   2 19 11 
   9  10  10  10  10   1 13 
   7  10  10  10  10   1 13 
   7  10  10  10  10   1 14 
   4  10  10  10  10   2 24 16 
   6  10  10  10  10   2 24 17 
   6  10  10  10  10   1 17 
   6  10  10  10  10   1 18 
  10  10  10  10  10   1 20 
   9  10  10  10  10   1 20 
   9  10  10  10  10   1 21 
   2  10  10  10  10   1 22 
   7  10  10  10  10   2 31 23 
   8  10  10  10  10   2 30 25 
   1  10  10  10  10   1 25 
  10  10  10  10  10   1 26 
   1  10  10  10  10   1 27 
   2  10  10  10  10   1 28 
   1  10  10  10  10   1 29 
   7  10  10  10  10   1 32
   1  10  10  10  10   1 32
   4  10  10  10  10   1 32
   0   0   0   0   0   0 
